p cnf 276 1662
-1 -2 0
-1 -3 0
-1 -4 0
-1 -5 0
-1 -6 0
-1 -7 0
-1 -8 0
-1 -9 0
-1 -10 0
-1 -11 0
-1 -12 0
-2 -3 0
-2 -4 0
-2 -5 0
-2 -6 0
-2 -7 0
-2 -8 0
-2 -9 0
-2 -10 0
-2 -11 0
-2 -12 0
-3 -4 0
-3 -5 0
-3 -6 0
-3 -7 0
-3 -8 0
-3 -9 0
-3 -10 0
-3 -11 0
-3 -12 0
-4 -5 0
-4 -6 0
-4 -7 0
-4 -8 0
-4 -9 0
-4 -10 0
-4 -11 0
-4 -12 0
-5 -6 0
-5 -7 0
-5 -8 0
-5 -9 0
-5 -10 0
-5 -11 0
-5 -12 0
-6 -7 0
-6 -8 0
-6 -9 0
-6 -10 0
-6 -11 0
-6 -12 0
-7 -8 0
-7 -9 0
-7 -10 0
-7 -11 0
-7 -12 0
-8 -9 0
-8 -10 0
-8 -11 0
-8 -12 0
-9 -10 0
-9 -11 0
-9 -12 0
-10 -11 0
-10 -12 0
-11 -12 0
-13 -14 0
-13 -15 0
-13 -16 0
-13 -17 0
-13 -18 0
-13 -19 0
-13 -20 0
-13 -21 0
-13 -22 0
-13 -23 0
-13 -24 0
-14 -15 0
-14 -16 0
-14 -17 0
-14 -18 0
-14 -19 0
-14 -20 0
-14 -21 0
-14 -22 0
-14 -23 0
-14 -24 0
-15 -16 0
-15 -17 0
-15 -18 0
-15 -19 0
-15 -20 0
-15 -21 0
-15 -22 0
-15 -23 0
-15 -24 0
-16 -17 0
-16 -18 0
-16 -19 0
-16 -20 0
-16 -21 0
-16 -22 0
-16 -23 0
-16 -24 0
-17 -18 0
-17 -19 0
-17 -20 0
-17 -21 0
-17 -22 0
-17 -23 0
-17 -24 0
-18 -19 0
-18 -20 0
-18 -21 0
-18 -22 0
-18 -23 0
-18 -24 0
-19 -20 0
-19 -21 0
-19 -22 0
-19 -23 0
-19 -24 0
-20 -21 0
-20 -22 0
-20 -23 0
-20 -24 0
-21 -22 0
-21 -23 0
-21 -24 0
-22 -23 0
-22 -24 0
-23 -24 0
-25 -26 0
-25 -27 0
-25 -28 0
-25 -29 0
-25 -30 0
-25 -31 0
-25 -32 0
-25 -33 0
-25 -34 0
-25 -35 0
-25 -36 0
-26 -27 0
-26 -28 0
-26 -29 0
-26 -30 0
-26 -31 0
-26 -32 0
-26 -33 0
-26 -34 0
-26 -35 0
-26 -36 0
-27 -28 0
-27 -29 0
-27 -30 0
-27 -31 0
-27 -32 0
-27 -33 0
-27 -34 0
-27 -35 0
-27 -36 0
-28 -29 0
-28 -30 0
-28 -31 0
-28 -32 0
-28 -33 0
-28 -34 0
-28 -35 0
-28 -36 0
-29 -30 0
-29 -31 0
-29 -32 0
-29 -33 0
-29 -34 0
-29 -35 0
-29 -36 0
-30 -31 0
-30 -32 0
-30 -33 0
-30 -34 0
-30 -35 0
-30 -36 0
-31 -32 0
-31 -33 0
-31 -34 0
-31 -35 0
-31 -36 0
-32 -33 0
-32 -34 0
-32 -35 0
-32 -36 0
-33 -34 0
-33 -35 0
-33 -36 0
-34 -35 0
-34 -36 0
-35 -36 0
-37 -38 0
-37 -39 0
-37 -40 0
-37 -41 0
-37 -42 0
-37 -43 0
-37 -44 0
-37 -45 0
-37 -46 0
-37 -47 0
-37 -48 0
-38 -39 0
-38 -40 0
-38 -41 0
-38 -42 0
-38 -43 0
-38 -44 0
-38 -45 0
-38 -46 0
-38 -47 0
-38 -48 0
-39 -40 0
-39 -41 0
-39 -42 0
-39 -43 0
-39 -44 0
-39 -45 0
-39 -46 0
-39 -47 0
-39 -48 0
-40 -41 0
-40 -42 0
-40 -43 0
-40 -44 0
-40 -45 0
-40 -46 0
-40 -47 0
-40 -48 0
-41 -42 0
-41 -43 0
-41 -44 0
-41 -45 0
-41 -46 0
-41 -47 0
-41 -48 0
-42 -43 0
-42 -44 0
-42 -45 0
-42 -46 0
-42 -47 0
-42 -48 0
-43 -44 0
-43 -45 0
-43 -46 0
-43 -47 0
-43 -48 0
-44 -45 0
-44 -46 0
-44 -47 0
-44 -48 0
-45 -46 0
-45 -47 0
-45 -48 0
-46 -47 0
-46 -48 0
-47 -48 0
-49 -50 0
-49 -51 0
-49 -52 0
-49 -53 0
-49 -54 0
-49 -55 0
-49 -56 0
-49 -57 0
-49 -58 0
-49 -59 0
-49 -60 0
-50 -51 0
-50 -52 0
-50 -53 0
-50 -54 0
-50 -55 0
-50 -56 0
-50 -57 0
-50 -58 0
-50 -59 0
-50 -60 0
-51 -52 0
-51 -53 0
-51 -54 0
-51 -55 0
-51 -56 0
-51 -57 0
-51 -58 0
-51 -59 0
-51 -60 0
-52 -53 0
-52 -54 0
-52 -55 0
-52 -56 0
-52 -57 0
-52 -58 0
-52 -59 0
-52 -60 0
-53 -54 0
-53 -55 0
-53 -56 0
-53 -57 0
-53 -58 0
-53 -59 0
-53 -60 0
-54 -55 0
-54 -56 0
-54 -57 0
-54 -58 0
-54 -59 0
-54 -60 0
-55 -56 0
-55 -57 0
-55 -58 0
-55 -59 0
-55 -60 0
-56 -57 0
-56 -58 0
-56 -59 0
-56 -60 0
-57 -58 0
-57 -59 0
-57 -60 0
-58 -59 0
-58 -60 0
-59 -60 0
-61 -62 0
-61 -63 0
-61 -64 0
-61 -65 0
-61 -66 0
-61 -67 0
-61 -68 0
-61 -69 0
-61 -70 0
-61 -71 0
-61 -72 0
-62 -63 0
-62 -64 0
-62 -65 0
-62 -66 0
-62 -67 0
-62 -68 0
-62 -69 0
-62 -70 0
-62 -71 0
-62 -72 0
-63 -64 0
-63 -65 0
-63 -66 0
-63 -67 0
-63 -68 0
-63 -69 0
-63 -70 0
-63 -71 0
-63 -72 0
-64 -65 0
-64 -66 0
-64 -67 0
-64 -68 0
-64 -69 0
-64 -70 0
-64 -71 0
-64 -72 0
-65 -66 0
-65 -67 0
-65 -68 0
-65 -69 0
-65 -70 0
-65 -71 0
-65 -72 0
-66 -67 0
-66 -68 0
-66 -69 0
-66 -70 0
-66 -71 0
-66 -72 0
-67 -68 0
-67 -69 0
-67 -70 0
-67 -71 0
-67 -72 0
-68 -69 0
-68 -70 0
-68 -71 0
-68 -72 0
-69 -70 0
-69 -71 0
-69 -72 0
-70 -71 0
-70 -72 0
-71 -72 0
-73 -74 0
-73 -75 0
-73 -76 0
-73 -77 0
-73 -78 0
-73 -79 0
-73 -80 0
-73 -81 0
-73 -82 0
-73 -83 0
-73 -84 0
-74 -75 0
-74 -76 0
-74 -77 0
-74 -78 0
-74 -79 0
-74 -80 0
-74 -81 0
-74 -82 0
-74 -83 0
-74 -84 0
-75 -76 0
-75 -77 0
-75 -78 0
-75 -79 0
-75 -80 0
-75 -81 0
-75 -82 0
-75 -83 0
-75 -84 0
-76 -77 0
-76 -78 0
-76 -79 0
-76 -80 0
-76 -81 0
-76 -82 0
-76 -83 0
-76 -84 0
-77 -78 0
-77 -79 0
-77 -80 0
-77 -81 0
-77 -82 0
-77 -83 0
-77 -84 0
-78 -79 0
-78 -80 0
-78 -81 0
-78 -82 0
-78 -83 0
-78 -84 0
-79 -80 0
-79 -81 0
-79 -82 0
-79 -83 0
-79 -84 0
-80 -81 0
-80 -82 0
-80 -83 0
-80 -84 0
-81 -82 0
-81 -83 0
-81 -84 0
-82 -83 0
-82 -84 0
-83 -84 0
-85 -86 0
-85 -87 0
-85 -88 0
-85 -89 0
-85 -90 0
-85 -91 0
-85 -92 0
-85 -93 0
-85 -94 0
-85 -95 0
-85 -96 0
-86 -87 0
-86 -88 0
-86 -89 0
-86 -90 0
-86 -91 0
-86 -92 0
-86 -93 0
-86 -94 0
-86 -95 0
-86 -96 0
-87 -88 0
-87 -89 0
-87 -90 0
-87 -91 0
-87 -92 0
-87 -93 0
-87 -94 0
-87 -95 0
-87 -96 0
-88 -89 0
-88 -90 0
-88 -91 0
-88 -92 0
-88 -93 0
-88 -94 0
-88 -95 0
-88 -96 0
-89 -90 0
-89 -91 0
-89 -92 0
-89 -93 0
-89 -94 0
-89 -95 0
-89 -96 0
-90 -91 0
-90 -92 0
-90 -93 0
-90 -94 0
-90 -95 0
-90 -96 0
-91 -92 0
-91 -93 0
-91 -94 0
-91 -95 0
-91 -96 0
-92 -93 0
-92 -94 0
-92 -95 0
-92 -96 0
-93 -94 0
-93 -95 0
-93 -96 0
-94 -95 0
-94 -96 0
-95 -96 0
-97 -98 0
-97 -99 0
-97 -100 0
-97 -101 0
-97 -102 0
-97 -103 0
-97 -104 0
-97 -105 0
-97 -106 0
-97 -107 0
-97 -108 0
-98 -99 0
-98 -100 0
-98 -101 0
-98 -102 0
-98 -103 0
-98 -104 0
-98 -105 0
-98 -106 0
-98 -107 0
-98 -108 0
-99 -100 0
-99 -101 0
-99 -102 0
-99 -103 0
-99 -104 0
-99 -105 0
-99 -106 0
-99 -107 0
-99 -108 0
-100 -101 0
-100 -102 0
-100 -103 0
-100 -104 0
-100 -105 0
-100 -106 0
-100 -107 0
-100 -108 0
-101 -102 0
-101 -103 0
-101 -104 0
-101 -105 0
-101 -106 0
-101 -107 0
-101 -108 0
-102 -103 0
-102 -104 0
-102 -105 0
-102 -106 0
-102 -107 0
-102 -108 0
-103 -104 0
-103 -105 0
-103 -106 0
-103 -107 0
-103 -108 0
-104 -105 0
-104 -106 0
-104 -107 0
-104 -108 0
-105 -106 0
-105 -107 0
-105 -108 0
-106 -107 0
-106 -108 0
-107 -108 0
-109 -110 0
-109 -111 0
-109 -112 0
-109 -113 0
-109 -114 0
-109 -115 0
-109 -116 0
-109 -117 0
-109 -118 0
-109 -119 0
-109 -120 0
-110 -111 0
-110 -112 0
-110 -113 0
-110 -114 0
-110 -115 0
-110 -116 0
-110 -117 0
-110 -118 0
-110 -119 0
-110 -120 0
-111 -112 0
-111 -113 0
-111 -114 0
-111 -115 0
-111 -116 0
-111 -117 0
-111 -118 0
-111 -119 0
-111 -120 0
-112 -113 0
-112 -114 0
-112 -115 0
-112 -116 0
-112 -117 0
-112 -118 0
-112 -119 0
-112 -120 0
-113 -114 0
-113 -115 0
-113 -116 0
-113 -117 0
-113 -118 0
-113 -119 0
-113 -120 0
-114 -115 0
-114 -116 0
-114 -117 0
-114 -118 0
-114 -119 0
-114 -120 0
-115 -116 0
-115 -117 0
-115 -118 0
-115 -119 0
-115 -120 0
-116 -117 0
-116 -118 0
-116 -119 0
-116 -120 0
-117 -118 0
-117 -119 0
-117 -120 0
-118 -119 0
-118 -120 0
-119 -120 0
-121 -122 0
-121 -123 0
-121 -124 0
-121 -125 0
-121 -126 0
-121 -127 0
-121 -128 0
-121 -129 0
-121 -130 0
-121 -131 0
-121 -132 0
-122 -123 0
-122 -124 0
-122 -125 0
-122 -126 0
-122 -127 0
-122 -128 0
-122 -129 0
-122 -130 0
-122 -131 0
-122 -132 0
-123 -124 0
-123 -125 0
-123 -126 0
-123 -127 0
-123 -128 0
-123 -129 0
-123 -130 0
-123 -131 0
-123 -132 0
-124 -125 0
-124 -126 0
-124 -127 0
-124 -128 0
-124 -129 0
-124 -130 0
-124 -131 0
-124 -132 0
-125 -126 0
-125 -127 0
-125 -128 0
-125 -129 0
-125 -130 0
-125 -131 0
-125 -132 0
-126 -127 0
-126 -128 0
-126 -129 0
-126 -130 0
-126 -131 0
-126 -132 0
-127 -128 0
-127 -129 0
-127 -130 0
-127 -131 0
-127 -132 0
-128 -129 0
-128 -130 0
-128 -131 0
-128 -132 0
-129 -130 0
-129 -131 0
-129 -132 0
-130 -131 0
-130 -132 0
-131 -132 0
-133 -134 0
-133 -135 0
-133 -136 0
-133 -137 0
-133 -138 0
-133 -139 0
-133 -140 0
-133 -141 0
-133 -142 0
-133 -143 0
-133 -144 0
-134 -135 0
-134 -136 0
-134 -137 0
-134 -138 0
-134 -139 0
-134 -140 0
-134 -141 0
-134 -142 0
-134 -143 0
-134 -144 0
-135 -136 0
-135 -137 0
-135 -138 0
-135 -139 0
-135 -140 0
-135 -141 0
-135 -142 0
-135 -143 0
-135 -144 0
-136 -137 0
-136 -138 0
-136 -139 0
-136 -140 0
-136 -141 0
-136 -142 0
-136 -143 0
-136 -144 0
-137 -138 0
-137 -139 0
-137 -140 0
-137 -141 0
-137 -142 0
-137 -143 0
-137 -144 0
-138 -139 0
-138 -140 0
-138 -141 0
-138 -142 0
-138 -143 0
-138 -144 0
-139 -140 0
-139 -141 0
-139 -142 0
-139 -143 0
-139 -144 0
-140 -141 0
-140 -142 0
-140 -143 0
-140 -144 0
-141 -142 0
-141 -143 0
-141 -144 0
-142 -143 0
-142 -144 0
-143 -144 0
-145 -146 0
-145 -147 0
-145 -148 0
-145 -149 0
-145 -150 0
-145 -151 0
-145 -152 0
-145 -153 0
-145 -154 0
-145 -155 0
-145 -156 0
-146 -147 0
-146 -148 0
-146 -149 0
-146 -150 0
-146 -151 0
-146 -152 0
-146 -153 0
-146 -154 0
-146 -155 0
-146 -156 0
-147 -148 0
-147 -149 0
-147 -150 0
-147 -151 0
-147 -152 0
-147 -153 0
-147 -154 0
-147 -155 0
-147 -156 0
-148 -149 0
-148 -150 0
-148 -151 0
-148 -152 0
-148 -153 0
-148 -154 0
-148 -155 0
-148 -156 0
-149 -150 0
-149 -151 0
-149 -152 0
-149 -153 0
-149 -154 0
-149 -155 0
-149 -156 0
-150 -151 0
-150 -152 0
-150 -153 0
-150 -154 0
-150 -155 0
-150 -156 0
-151 -152 0
-151 -153 0
-151 -154 0
-151 -155 0
-151 -156 0
-152 -153 0
-152 -154 0
-152 -155 0
-152 -156 0
-153 -154 0
-153 -155 0
-153 -156 0
-154 -155 0
-154 -156 0
-155 -156 0
-157 -158 0
-157 -159 0
-157 -160 0
-157 -161 0
-157 -162 0
-157 -163 0
-157 -164 0
-157 -165 0
-157 -166 0
-157 -167 0
-157 -168 0
-158 -159 0
-158 -160 0
-158 -161 0
-158 -162 0
-158 -163 0
-158 -164 0
-158 -165 0
-158 -166 0
-158 -167 0
-158 -168 0
-159 -160 0
-159 -161 0
-159 -162 0
-159 -163 0
-159 -164 0
-159 -165 0
-159 -166 0
-159 -167 0
-159 -168 0
-160 -161 0
-160 -162 0
-160 -163 0
-160 -164 0
-160 -165 0
-160 -166 0
-160 -167 0
-160 -168 0
-161 -162 0
-161 -163 0
-161 -164 0
-161 -165 0
-161 -166 0
-161 -167 0
-161 -168 0
-162 -163 0
-162 -164 0
-162 -165 0
-162 -166 0
-162 -167 0
-162 -168 0
-163 -164 0
-163 -165 0
-163 -166 0
-163 -167 0
-163 -168 0
-164 -165 0
-164 -166 0
-164 -167 0
-164 -168 0
-165 -166 0
-165 -167 0
-165 -168 0
-166 -167 0
-166 -168 0
-167 -168 0
-169 -170 0
-169 -171 0
-169 -172 0
-169 -173 0
-169 -174 0
-169 -175 0
-169 -176 0
-169 -177 0
-169 -178 0
-169 -179 0
-169 -180 0
-170 -171 0
-170 -172 0
-170 -173 0
-170 -174 0
-170 -175 0
-170 -176 0
-170 -177 0
-170 -178 0
-170 -179 0
-170 -180 0
-171 -172 0
-171 -173 0
-171 -174 0
-171 -175 0
-171 -176 0
-171 -177 0
-171 -178 0
-171 -179 0
-171 -180 0
-172 -173 0
-172 -174 0
-172 -175 0
-172 -176 0
-172 -177 0
-172 -178 0
-172 -179 0
-172 -180 0
-173 -174 0
-173 -175 0
-173 -176 0
-173 -177 0
-173 -178 0
-173 -179 0
-173 -180 0
-174 -175 0
-174 -176 0
-174 -177 0
-174 -178 0
-174 -179 0
-174 -180 0
-175 -176 0
-175 -177 0
-175 -178 0
-175 -179 0
-175 -180 0
-176 -177 0
-176 -178 0
-176 -179 0
-176 -180 0
-177 -178 0
-177 -179 0
-177 -180 0
-178 -179 0
-178 -180 0
-179 -180 0
-181 -182 0
-181 -183 0
-181 -184 0
-181 -185 0
-181 -186 0
-181 -187 0
-181 -188 0
-181 -189 0
-181 -190 0
-181 -191 0
-181 -192 0
-182 -183 0
-182 -184 0
-182 -185 0
-182 -186 0
-182 -187 0
-182 -188 0
-182 -189 0
-182 -190 0
-182 -191 0
-182 -192 0
-183 -184 0
-183 -185 0
-183 -186 0
-183 -187 0
-183 -188 0
-183 -189 0
-183 -190 0
-183 -191 0
-183 -192 0
-184 -185 0
-184 -186 0
-184 -187 0
-184 -188 0
-184 -189 0
-184 -190 0
-184 -191 0
-184 -192 0
-185 -186 0
-185 -187 0
-185 -188 0
-185 -189 0
-185 -190 0
-185 -191 0
-185 -192 0
-186 -187 0
-186 -188 0
-186 -189 0
-186 -190 0
-186 -191 0
-186 -192 0
-187 -188 0
-187 -189 0
-187 -190 0
-187 -191 0
-187 -192 0
-188 -189 0
-188 -190 0
-188 -191 0
-188 -192 0
-189 -190 0
-189 -191 0
-189 -192 0
-190 -191 0
-190 -192 0
-191 -192 0
-193 -194 0
-193 -195 0
-193 -196 0
-193 -197 0
-193 -198 0
-193 -199 0
-193 -200 0
-193 -201 0
-193 -202 0
-193 -203 0
-193 -204 0
-194 -195 0
-194 -196 0
-194 -197 0
-194 -198 0
-194 -199 0
-194 -200 0
-194 -201 0
-194 -202 0
-194 -203 0
-194 -204 0
-195 -196 0
-195 -197 0
-195 -198 0
-195 -199 0
-195 -200 0
-195 -201 0
-195 -202 0
-195 -203 0
-195 -204 0
-196 -197 0
-196 -198 0
-196 -199 0
-196 -200 0
-196 -201 0
-196 -202 0
-196 -203 0
-196 -204 0
-197 -198 0
-197 -199 0
-197 -200 0
-197 -201 0
-197 -202 0
-197 -203 0
-197 -204 0
-198 -199 0
-198 -200 0
-198 -201 0
-198 -202 0
-198 -203 0
-198 -204 0
-199 -200 0
-199 -201 0
-199 -202 0
-199 -203 0
-199 -204 0
-200 -201 0
-200 -202 0
-200 -203 0
-200 -204 0
-201 -202 0
-201 -203 0
-201 -204 0
-202 -203 0
-202 -204 0
-203 -204 0
-205 -206 0
-205 -207 0
-205 -208 0
-205 -209 0
-205 -210 0
-205 -211 0
-205 -212 0
-205 -213 0
-205 -214 0
-205 -215 0
-205 -216 0
-206 -207 0
-206 -208 0
-206 -209 0
-206 -210 0
-206 -211 0
-206 -212 0
-206 -213 0
-206 -214 0
-206 -215 0
-206 -216 0
-207 -208 0
-207 -209 0
-207 -210 0
-207 -211 0
-207 -212 0
-207 -213 0
-207 -214 0
-207 -215 0
-207 -216 0
-208 -209 0
-208 -210 0
-208 -211 0
-208 -212 0
-208 -213 0
-208 -214 0
-208 -215 0
-208 -216 0
-209 -210 0
-209 -211 0
-209 -212 0
-209 -213 0
-209 -214 0
-209 -215 0
-209 -216 0
-210 -211 0
-210 -212 0
-210 -213 0
-210 -214 0
-210 -215 0
-210 -216 0
-211 -212 0
-211 -213 0
-211 -214 0
-211 -215 0
-211 -216 0
-212 -213 0
-212 -214 0
-212 -215 0
-212 -216 0
-213 -214 0
-213 -215 0
-213 -216 0
-214 -215 0
-214 -216 0
-215 -216 0
-217 -218 0
-217 -219 0
-217 -220 0
-217 -221 0
-217 -222 0
-217 -223 0
-217 -224 0
-217 -225 0
-217 -226 0
-217 -227 0
-217 -228 0
-218 -219 0
-218 -220 0
-218 -221 0
-218 -222 0
-218 -223 0
-218 -224 0
-218 -225 0
-218 -226 0
-218 -227 0
-218 -228 0
-219 -220 0
-219 -221 0
-219 -222 0
-219 -223 0
-219 -224 0
-219 -225 0
-219 -226 0
-219 -227 0
-219 -228 0
-220 -221 0
-220 -222 0
-220 -223 0
-220 -224 0
-220 -225 0
-220 -226 0
-220 -227 0
-220 -228 0
-221 -222 0
-221 -223 0
-221 -224 0
-221 -225 0
-221 -226 0
-221 -227 0
-221 -228 0
-222 -223 0
-222 -224 0
-222 -225 0
-222 -226 0
-222 -227 0
-222 -228 0
-223 -224 0
-223 -225 0
-223 -226 0
-223 -227 0
-223 -228 0
-224 -225 0
-224 -226 0
-224 -227 0
-224 -228 0
-225 -226 0
-225 -227 0
-225 -228 0
-226 -227 0
-226 -228 0
-227 -228 0
-229 -230 0
-229 -231 0
-229 -232 0
-229 -233 0
-229 -234 0
-229 -235 0
-229 -236 0
-229 -237 0
-229 -238 0
-229 -239 0
-229 -240 0
-230 -231 0
-230 -232 0
-230 -233 0
-230 -234 0
-230 -235 0
-230 -236 0
-230 -237 0
-230 -238 0
-230 -239 0
-230 -240 0
-231 -232 0
-231 -233 0
-231 -234 0
-231 -235 0
-231 -236 0
-231 -237 0
-231 -238 0
-231 -239 0
-231 -240 0
-232 -233 0
-232 -234 0
-232 -235 0
-232 -236 0
-232 -237 0
-232 -238 0
-232 -239 0
-232 -240 0
-233 -234 0
-233 -235 0
-233 -236 0
-233 -237 0
-233 -238 0
-233 -239 0
-233 -240 0
-234 -235 0
-234 -236 0
-234 -237 0
-234 -238 0
-234 -239 0
-234 -240 0
-235 -236 0
-235 -237 0
-235 -238 0
-235 -239 0
-235 -240 0
-236 -237 0
-236 -238 0
-236 -239 0
-236 -240 0
-237 -238 0
-237 -239 0
-237 -240 0
-238 -239 0
-238 -240 0
-239 -240 0
-241 -242 0
-241 -243 0
-241 -244 0
-241 -245 0
-241 -246 0
-241 -247 0
-241 -248 0
-241 -249 0
-241 -250 0
-241 -251 0
-241 -252 0
-242 -243 0
-242 -244 0
-242 -245 0
-242 -246 0
-242 -247 0
-242 -248 0
-242 -249 0
-242 -250 0
-242 -251 0
-242 -252 0
-243 -244 0
-243 -245 0
-243 -246 0
-243 -247 0
-243 -248 0
-243 -249 0
-243 -250 0
-243 -251 0
-243 -252 0
-244 -245 0
-244 -246 0
-244 -247 0
-244 -248 0
-244 -249 0
-244 -250 0
-244 -251 0
-244 -252 0
-245 -246 0
-245 -247 0
-245 -248 0
-245 -249 0
-245 -250 0
-245 -251 0
-245 -252 0
-246 -247 0
-246 -248 0
-246 -249 0
-246 -250 0
-246 -251 0
-246 -252 0
-247 -248 0
-247 -249 0
-247 -250 0
-247 -251 0
-247 -252 0
-248 -249 0
-248 -250 0
-248 -251 0
-248 -252 0
-249 -250 0
-249 -251 0
-249 -252 0
-250 -251 0
-250 -252 0
-251 -252 0
-253 -254 0
-253 -255 0
-253 -256 0
-253 -257 0
-253 -258 0
-253 -259 0
-253 -260 0
-253 -261 0
-253 -262 0
-253 -263 0
-253 -264 0
-254 -255 0
-254 -256 0
-254 -257 0
-254 -258 0
-254 -259 0
-254 -260 0
-254 -261 0
-254 -262 0
-254 -263 0
-254 -264 0
-255 -256 0
-255 -257 0
-255 -258 0
-255 -259 0
-255 -260 0
-255 -261 0
-255 -262 0
-255 -263 0
-255 -264 0
-256 -257 0
-256 -258 0
-256 -259 0
-256 -260 0
-256 -261 0
-256 -262 0
-256 -263 0
-256 -264 0
-257 -258 0
-257 -259 0
-257 -260 0
-257 -261 0
-257 -262 0
-257 -263 0
-257 -264 0
-258 -259 0
-258 -260 0
-258 -261 0
-258 -262 0
-258 -263 0
-258 -264 0
-259 -260 0
-259 -261 0
-259 -262 0
-259 -263 0
-259 -264 0
-260 -261 0
-260 -262 0
-260 -263 0
-260 -264 0
-261 -262 0
-261 -263 0
-261 -264 0
-262 -263 0
-262 -264 0
-263 -264 0
-265 -266 0
-265 -267 0
-265 -268 0
-265 -269 0
-265 -270 0
-265 -271 0
-265 -272 0
-265 -273 0
-265 -274 0
-265 -275 0
-265 -276 0
-266 -267 0
-266 -268 0
-266 -269 0
-266 -270 0
-266 -271 0
-266 -272 0
-266 -273 0
-266 -274 0
-266 -275 0
-266 -276 0
-267 -268 0
-267 -269 0
-267 -270 0
-267 -271 0
-267 -272 0
-267 -273 0
-267 -274 0
-267 -275 0
-267 -276 0
-268 -269 0
-268 -270 0
-268 -271 0
-268 -272 0
-268 -273 0
-268 -274 0
-268 -275 0
-268 -276 0
-269 -270 0
-269 -271 0
-269 -272 0
-269 -273 0
-269 -274 0
-269 -275 0
-269 -276 0
-270 -271 0
-270 -272 0
-270 -273 0
-270 -274 0
-270 -275 0
-270 -276 0
-271 -272 0
-271 -273 0
-271 -274 0
-271 -275 0
-271 -276 0
-272 -273 0
-272 -274 0
-272 -275 0
-272 -276 0
-273 -274 0
-273 -275 0
-273 -276 0
-274 -275 0
-274 -276 0
-275 -276 0
1 13 25 37 49 61 73 85 97 109 121 133 145 157 169 181 193 205 217 229 241 253 265 0
2 14 26 38 50 62 74 86 98 110 122 134 146 158 170 182 194 206 218 230 242 254 266 0
3 15 27 39 51 63 75 87 99 111 123 135 147 159 171 183 195 207 219 231 243 255 267 0
4 16 28 40 52 64 76 88 100 112 124 136 148 160 172 184 196 208 220 232 244 256 268 0
5 17 29 41 53 65 77 89 101 113 125 137 149 161 173 185 197 209 221 233 245 257 269 0
6 18 30 42 54 66 78 90 102 114 126 138 150 162 174 186 198 210 222 234 246 258 270 0
7 19 31 43 55 67 79 91 103 115 127 139 151 163 175 187 199 211 223 235 247 259 271 0
8 20 32 44 56 68 80 92 104 116 128 140 152 164 176 188 200 212 224 236 248 260 272 0
9 21 33 45 57 69 81 93 105 117 129 141 153 165 177 189 201 213 225 237 249 261 273 0
10 22 34 46 58 70 82 94 106 118 130 142 154 166 178 190 202 214 226 238 250 262 274 0
11 23 35 47 59 71 83 95 107 119 131 143 155 167 179 191 203 215 227 239 251 263 275 0
12 24 36 48 60 72 84 96 108 120 132 144 156 168 180 192 204 216 228 240 252 264 276 0
1 24 35 46 57 68 79 90 101 112 123 134 145 168 179 190 201 212 223 234 245 256 267 0
2 13 36 47 58 69 80 91 102 113 124 135 146 157 180 191 202 213 224 235 246 257 268 0
3 14 25 48 59 70 81 92 103 114 125 136 147 158 169 192 203 214 225 236 247 258 269 0
4 15 26 37 60 71 82 93 104 115 126 137 148 159 170 181 204 215 226 237 248 259 270 0
5 16 27 38 49 72 83 94 105 116 127 138 149 160 171 182 193 216 227 238 249 260 271 0
6 17 28 39 50 61 84 95 106 117 128 139 150 161 172 183 194 205 228 239 250 261 272 0
7 18 29 40 51 62 73 96 107 118 129 140 151 162 173 184 195 206 217 240 251 262 273 0
8 19 30 41 52 63 74 85 108 119 130 141 152 163 174 185 196 207 218 229 252 263 274 0
9 20 31 42 53 64 75 86 97 120 131 142 153 164 175 186 197 208 219 230 241 264 275 0
10 21 32 43 54 65 76 87 98 109 132 143 154 165 176 187 198 209 220 231 242 253 276 0
11 22 33 44 55 66 77 88 99 110 121 144 155 166 177 188 199 210 221 232 243 254 265 0
12 23 34 45 56 67 78 89 100 111 122 133 156 167 178 189 200 211 222 233 244 255 266 0
1 23 33 43 53 63 73 95 105 115 125 135 145 167 177 187 197 207 217 239 249 259 269 0
2 24 34 44 54 64 74 96 106 116 126 136 146 168 178 188 198 208 218 240 250 260 270 0
3 13 35 45 55 65 75 85 107 117 127 137 147 157 179 189 199 209 219 229 251 261 271 0
4 14 36 46 56 66 76 86 108 118 128 138 148 158 180 190 200 210 220 230 252 262 272 0
5 15 25 47 57 67 77 87 97 119 129 139 149 159 169 191 201 211 221 231 241 263 273 0
6 16 26 48 58 68 78 88 98 120 130 140 150 160 170 192 202 212 222 232 242 264 274 0
7 17 27 37 59 69 79 89 99 109 131 141 151 161 171 181 203 213 223 233 243 253 275 0
8 18 28 38 60 70 80 90 100 110 132 142 152 162 172 182 204 214 224 234 244 254 276 0
9 19 29 39 49 71 81 91 101 111 121 143 153 163 173 183 193 215 225 235 245 255 265 0
10 20 30 40 50 72 82 92 102 112 122 144 154 164 174 184 194 216 226 236 246 256 266 0
11 21 31 41 51 61 83 93 103 113 123 133 155 165 175 185 195 205 227 237 247 257 267 0
12 22 32 42 52 62 84 94 104 114 124 134 156 166 176 186 196 206 228 238 248 258 268 0
1 22 31 40 49 70 79 88 97 118 127 136 145 166 175 184 193 214 223 232 241 262 271 0
2 23 32 41 50 71 80 89 98 119 128 137 146 167 176 185 194 215 224 233 242 263 272 0
3 24 33 42 51 72 81 90 99 120 129 138 147 168 177 186 195 216 225 234 243 264 273 0
4 13 34 43 52 61 82 91 100 109 130 139 148 157 178 187 196 205 226 235 244 253 274 0
5 14 35 44 53 62 83 92 101 110 131 140 149 158 179 188 197 206 227 236 245 254 275 0
6 15 36 45 54 63 84 93 102 111 132 141 150 159 180 189 198 207 228 237 246 255 276 0
7 16 25 46 55 64 73 94 103 112 121 142 151 160 169 190 199 208 217 238 247 256 265 0
8 17 26 47 56 65 74 95 104 113 122 143 152 161 170 191 200 209 218 239 248 257 266 0
9 18 27 48 57 66 75 96 105 114 123 144 153 162 171 192 201 210 219 240 249 258 267 0
10 19 28 37 58 67 76 85 106 115 124 133 154 163 172 181 202 211 220 229 250 259 268 0
11 20 29 38 59 68 77 86 107 116 125 134 155 164 173 182 203 212 221 230 251 260 269 0
12 21 30 39 60 69 78 87 108 117 126 135 156 165 174 183 204 213 222 231 252 261 270 0
1 21 29 37 57 65 73 93 101 109 129 137 145 165 173 181 201 209 217 237 245 253 273 0
2 22 30 38 58 66 74 94 102 110 130 138 146 166 174 182 202 210 218 238 246 254 274 0
3 23 31 39 59 67 75 95 103 111 131 139 147 167 175 183 203 211 219 239 247 255 275 0
4 24 32 40 60 68 76 96 104 112 132 140 148 168 176 184 204 212 220 240 248 256 276 0
5 13 33 41 49 69 77 85 105 113 121 141 149 157 177 185 193 213 221 229 249 257 265 0
6 14 34 42 50 70 78 86 106 114 122 142 150 158 178 186 194 214 222 230 250 258 266 0
7 15 35 43 51 71 79 87 107 115 123 143 151 159 179 187 195 215 223 231 251 259 267 0
8 16 36 44 52 72 80 88 108 116 124 144 152 160 180 188 196 216 224 232 252 260 268 0
9 17 25 45 53 61 81 89 97 117 125 133 153 161 169 189 197 205 225 233 241 261 269 0
10 18 26 46 54 62 82 90 98 118 126 134 154 162 170 190 198 206 226 234 242 262 270 0
11 19 27 47 55 63 83 91 99 119 127 135 155 163 171 191 199 207 227 235 243 263 271 0
12 20 28 48 56 64 84 92 100 120 128 136 156 164 172 192 200 208 228 236 244 264 272 0
1 20 27 46 53 72 79 86 105 112 131 138 145 164 171 190 197 216 223 230 249 256 275 0
2 21 28 47 54 61 80 87 106 113 132 139 146 165 172 191 198 205 224 231 250 257 276 0
3 22 29 48 55 62 81 88 107 114 121 140 147 166 173 192 199 206 225 232 251 258 265 0
4 23 30 37 56 63 82 89 108 115 122 141 148 167 174 181 200 207 226 233 252 259 266 0
5 24 31 38 57 64 83 90 97 116 123 142 149 168 175 182 201 208 227 234 241 260 267 0
6 13 32 39 58 65 84 91 98 117 124 143 150 157 176 183 202 209 228 235 242 261 268 0
7 14 33 40 59 66 73 92 99 118 125 144 151 158 177 184 203 210 217 236 243 262 269 0
8 15 34 41 60 67 74 93 100 119 126 133 152 159 178 185 204 211 218 237 244 263 270 0
9 16 35 42 49 68 75 94 101 120 127 134 153 160 179 186 193 212 219 238 245 264 271 0
10 17 36 43 50 69 76 95 102 109 128 135 154 161 180 187 194 213 220 239 246 253 272 0
11 18 25 44 51 70 77 96 103 110 129 136 155 162 169 188 195 214 221 240 247 254 273 0
12 19 26 45 52 71 78 85 104 111 130 137 156 163 170 189 196 215 222 229 248 255 274 0
1 19 25 43 49 67 73 91 97 115 121 139 145 163 169 187 193 211 217 235 241 259 265 0
2 20 26 44 50 68 74 92 98 116 122 140 146 164 170 188 194 212 218 236 242 260 266 0
3 21 27 45 51 69 75 93 99 117 123 141 147 165 171 189 195 213 219 237 243 261 267 0
4 22 28 46 52 70 76 94 100 118 124 142 148 166 172 190 196 214 220 238 244 262 268 0
5 23 29 47 53 71 77 95 101 119 125 143 149 167 173 191 197 215 221 239 245 263 269 0
6 24 30 48 54 72 78 96 102 120 126 144 150 168 174 192 198 216 222 240 246 264 270 0
7 13 31 37 55 61 79 85 103 109 127 133 151 157 175 181 199 205 223 229 247 253 271 0
8 14 32 38 56 62 80 86 104 110 128 134 152 158 176 182 200 206 224 230 248 254 272 0
9 15 33 39 57 63 81 87 105 111 129 135 153 159 177 183 201 207 225 231 249 255 273 0
10 16 34 40 58 64 82 88 106 112 130 136 154 160 178 184 202 208 226 232 250 256 274 0
11 17 35 41 59 65 83 89 107 113 131 137 155 161 179 185 203 209 227 233 251 257 275 0
12 18 36 42 60 66 84 90 108 114 132 138 156 162 180 186 204 210 228 234 252 258 276 0
1 18 35 40 57 62 79 96 101 118 123 140 145 162 179 184 201 206 223 240 245 262 267 0
2 19 36 41 58 63 80 85 102 119 124 141 146 163 180 185 202 207 224 229 246 263 268 0
3 20 25 42 59 64 81 86 103 120 125 142 147 164 169 186 203 208 225 230 247 264 269 0
4 21 26 43 60 65 82 87 104 109 126 143 148 165 170 187 204 209 226 231 248 253 270 0
5 22 27 44 49 66 83 88 105 110 127 144 149 166 171 188 193 210 227 232 249 254 271 0
6 23 28 45 50 67 84 89 106 111 128 133 150 167 172 189 194 211 228 233 250 255 272 0
7 24 29 46 51 68 73 90 107 112 129 134 151 168 173 190 195 212 217 234 251 256 273 0
8 13 30 47 52 69 74 91 108 113 130 135 152 157 174 191 196 213 218 235 252 257 274 0
9 14 31 48 53 70 75 92 97 114 131 136 153 158 175 192 197 214 219 236 241 258 275 0
10 15 32 37 54 71 76 93 98 115 132 137 154 159 176 181 198 215 220 237 242 259 276 0
11 16 33 38 55 72 77 94 99 116 121 138 155 160 177 182 199 216 221 238 243 260 265 0
12 17 34 39 56 61 78 95 100 117 122 139 156 161 178 183 200 205 222 239 244 261 266 0
1 17 33 37 53 69 73 89 105 109 125 141 145 161 177 181 197 213 217 233 249 253 269 0
2 18 34 38 54 70 74 90 106 110 126 142 146 162 178 182 198 214 218 234 250 254 270 0
3 19 35 39 55 71 75 91 107 111 127 143 147 163 179 183 199 215 219 235 251 255 271 0
4 20 36 40 56 72 76 92 108 112 128 144 148 164 180 184 200 216 220 236 252 256 272 0
5 21 25 41 57 61 77 93 97 113 129 133 149 165 169 185 201 205 221 237 241 257 273 0
6 22 26 42 58 62 78 94 98 114 130 134 150 166 170 186 202 206 222 238 242 258 274 0
7 23 27 43 59 63 79 95 99 115 131 135 151 167 171 187 203 207 223 239 243 259 275 0
8 24 28 44 60 64 80 96 100 116 132 136 152 168 172 188 204 208 224 240 244 260 276 0
9 13 29 45 49 65 81 85 101 117 121 137 153 157 173 189 193 209 225 229 245 261 265 0
10 14 30 46 50 66 82 86 102 118 122 138 154 158 174 190 194 210 226 230 246 262 266 0
11 15 31 47 51 67 83 87 103 119 123 139 155 159 175 191 195 211 227 231 247 263 267 0
12 16 32 48 52 68 84 88 104 120 124 140 156 160 176 192 196 212 228 232 248 264 268 0
1 16 31 46 49 64 79 94 97 112 127 142 145 160 175 190 193 208 223 238 241 256 271 0
2 17 32 47 50 65 80 95 98 113 128 143 146 161 176 191 194 209 224 239 242 257 272 0
3 18 33 48 51 66 81 96 99 114 129 144 147 162 177 192 195 210 225 240 243 258 273 0
4 19 34 37 52 67 82 85 100 115 130 133 148 163 178 181 196 211 226 229 244 259 274 0
5 20 35 38 53 68 83 86 101 116 131 134 149 164 179 182 197 212 227 230 245 260 275 0
6 21 36 39 54 69 84 87 102 117 132 135 150 165 180 183 198 213 228 231 246 261 276 0
7 22 25 40 55 70 73 88 103 118 121 136 151 166 169 184 199 214 217 232 247 262 265 0
8 23 26 41 56 71 74 89 104 119 122 137 152 167 170 185 200 215 218 233 248 263 266 0
9 24 27 42 57 72 75 90 105 120 123 138 153 168 171 186 201 216 219 234 249 264 267 0
10 13 28 43 58 61 76 91 106 109 124 139 154 157 172 187 202 205 220 235 250 253 268 0
11 14 29 44 59 62 77 92 107 110 125 140 155 158 173 188 203 206 221 236 251 254 269 0
12 15 30 45 60 63 78 93 108 111 126 141 156 159 174 189 204 207 222 237 252 255 270 0
1 15 29 43 57 71 73 87 101 115 129 143 145 159 173 187 201 215 217 231 245 259 273 0
2 16 30 44 58 72 74 88 102 116 130 144 146 160 174 188 202 216 218 232 246 260 274 0
3 17 31 45 59 61 75 89 103 117 131 133 147 161 175 189 203 205 219 233 247 261 275 0
4 18 32 46 60 62 76 90 104 118 132 134 148 162 176 190 204 206 220 234 248 262 276 0
5 19 33 47 49 63 77 91 105 119 121 135 149 163 177 191 193 207 221 235 249 263 265 0
6 20 34 48 50 64 78 92 106 120 122 136 150 164 178 192 194 208 222 236 250 264 266 0
7 21 35 37 51 65 79 93 107 109 123 137 151 165 179 181 195 209 223 237 251 253 267 0
8 22 36 38 52 66 80 94 108 110 124 138 152 166 180 182 196 210 224 238 252 254 268 0
9 23 25 39 53 67 81 95 97 111 125 139 153 167 169 183 197 211 225 239 241 255 269 0
10 24 26 40 54 68 82 96 98 112 126 140 154 168 170 184 198 212 226 240 242 256 270 0
11 13 27 41 55 69 83 85 99 113 127 141 155 157 171 185 199 213 227 229 243 257 271 0
12 14 28 42 56 70 84 86 100 114 128 142 156 158 172 186 200 214 228 230 244 258 272 0
1 14 27 40 53 66 79 92 105 118 131 144 145 158 171 184 197 210 223 236 249 262 275 0
2 15 28 41 54 67 80 93 106 119 132 133 146 159 172 185 198 211 224 237 250 263 276 0
3 16 29 42 55 68 81 94 107 120 121 134 147 160 173 186 199 212 225 238 251 264 265 0
4 17 30 43 56 69 82 95 108 109 122 135 148 161 174 187 200 213 226 239 252 253 266 0
5 18 31 44 57 70 83 96 97 110 123 136 149 162 175 188 201 214 227 240 241 254 267 0
6 19 32 45 58 71 84 85 98 111 124 137 150 163 176 189 202 215 228 229 242 255 268 0
7 20 33 46 59 72 73 86 99 112 125 138 151 164 177 190 203 216 217 230 243 256 269 0
8 21 34 47 60 61 74 87 100 113 126 139 152 165 178 191 204 205 218 231 244 257 270 0
9 22 35 48 49 62 75 88 101 114 127 140 153 166 179 192 193 206 219 232 245 258 271 0
10 23 36 37 50 63 76 89 102 115 128 141 154 167 180 181 194 207 220 233 246 259 272 0
11 24 25 38 51 64 77 90 103 116 129 142 155 168 169 182 195 208 221 234 247 260 273 0
12 13 26 39 52 65 78 91 104 117 130 143 156 157 170 183 196 209 222 235 248 261 274 0
